db/inputs/280019436287052836829106622794031274.smt2
(set-logic QF_FP)
(declare-const x0 (_ FloatingPoint 11 53))
(declare-const x1 (_ FloatingPoint 11 53))
(declare-const x2 (_ FloatingPoint 11 53))
(declare-const x3 (_ FloatingPoint 11 53))
(declare-const x4 (_ FloatingPoint 11 53))
(assert (fp.eq (fp.sub RNE (fp.add RNE (fp.add RNE x3 x4) (fp.mul RNE x3 x0)) (fp.mul RNE (fp.sub RNE x0 x1) (fp.div RNE x4 x0))) (fp.mul RNE (fp.add RNE (fp.add RNE x4 x1) (fp.neg x2)) (fp.div RNE (fp.sub RNE x0 x1) (fp.mul RNE x1 x2)))))
(check-sat)
