db/data/280019436287052836829106622794031274.z3.out
-------------------
2500.207066580
